sat
(model
  (define-fun |rev$unknown:5|
    ( (v_0 Int) (v_1 Int) ) Bool
    (= (+ v_1 (* (- 1) v_0)) 0)
  )
  (define-fun |append$unknown:3|
    ( (v_0 Int) (v_1 Int) (v_2 Int) ) Bool
    (= (+ (* (- 1) v_1) v_0 (* (- 1) v_2)) 0)
  )
)
